Solutions	
616.0	
603.0	
594.0	
593.0	
586.0	
580.0	
574.0	
570.0	
570.0	
570.0	
570.0	
571.0	
573.0	
576.0	
579.0	
580.0	
581.0	
583.0	
583.0	
587.0	
591.0	
597.0	
595.0	
588.0	
587.0	
585.0	
585.0	
586.0	
583.0	
582.0	
576.0	
576.0	
583.0	
589.0	
587.0	
587.0	
593.0	
595.0	
601.0	
606.0	
608.0	
613.0	
613.0	
602.0	
601.0	
598.0	
596.0	
593.0	
591.0	
593.0	
599.0	
595.0	
585.0	
582.0	
585.0	
594.0	
594.0	
596.0	
579.0	
580.0	
576.0	
574.0	
577.0	
577.0	
579.0	
583.0	
582.0	
584.0	
591.0	
592.0	
598.0	
611.0	
614.0	
614.0	
614.0	
614.0	
615.0	
616.0	
610.0	
606.0	
603.0	
603.0	
601.0	
600.0	
600.0	
594.0	
593.0	
593.0	
595.0	
600.0	
605.0	
611.0	
617.0	
622.0	
629.0	
627.0	
618.0	
612.0	
614.0	
620.0	
602.0	
611.0	
611.0	
614.0	
611.0	
614.0	
617.0	
609.0	
605.0	
604.0	
598.0	
596.0	
593.0	
593.0	
595.0	
594.0	
596.0	
602.0	
609.0	
611.0	
613.0	
614.0	
611.0	
611.0	
614.0	
613.0	
604.0	
603.0	
605.0	
604.0	
602.0	
587.0	
587.0	
589.0	
583.0	
590.0	
587.0	
588.0	
594.0	
603.0	
613.0	
613.0	
604.0	
611.0	
623.0	
640.0	
637.0	
640.0	
640.0	
641.0	
635.0	
633.0	
627.0	
617.0	
616.0	
615.0	
616.0	
593.0	
589.0	
592.0	
581.0	
586.0	
595.0	
596.0	
599.0	
602.0	
595.0	
597.0	
601.0	
601.0	
600.0	
600.0	
602.0	
609.0	
599.0	
602.0	
609.0	
600.0	
594.0	
595.0	
595.0	
597.0	
605.0	
601.0	
602.0	
607.0	
607.0	
602.0	
603.0	
609.0	
604.0	
607.0	
613.0	
623.0	
623.0	
636.0	
642.0	
655.0	
652.0	
647.0	
644.0	
617.0	
615.0	
614.0	
615.0	
615.0	
609.0	
612.0	
599.0	
